; benchmark generated from python API
(set-info :status unknown)
(declare-fun cell_1_1 () Int)
(declare-fun cell_2_1 () Int)
(declare-fun cell_3_1 () Int)
(declare-fun cell_4_1 () Int)
(declare-fun cell_5_1 () Int)
(declare-fun cell_6_1 () Int)
(declare-fun cell_7_1 () Int)
(declare-fun cell_8_1 () Int)
(declare-fun cell_9_1 () Int)
(declare-fun cell_1_2 () Int)
(declare-fun cell_2_2 () Int)
(declare-fun cell_3_2 () Int)
(declare-fun cell_4_2 () Int)
(declare-fun cell_5_2 () Int)
(declare-fun cell_6_2 () Int)
(declare-fun cell_7_2 () Int)
(declare-fun cell_8_2 () Int)
(declare-fun cell_9_2 () Int)
(declare-fun cell_1_3 () Int)
(declare-fun cell_2_3 () Int)
(declare-fun cell_3_3 () Int)
(declare-fun cell_4_3 () Int)
(declare-fun cell_5_3 () Int)
(declare-fun cell_6_3 () Int)
(declare-fun cell_7_3 () Int)
(declare-fun cell_8_3 () Int)
(declare-fun cell_9_3 () Int)
(declare-fun cell_1_4 () Int)
(declare-fun cell_2_4 () Int)
(declare-fun cell_3_4 () Int)
(declare-fun cell_4_4 () Int)
(declare-fun cell_5_4 () Int)
(declare-fun cell_6_4 () Int)
(declare-fun cell_7_4 () Int)
(declare-fun cell_8_4 () Int)
(declare-fun cell_9_4 () Int)
(declare-fun cell_1_5 () Int)
(declare-fun cell_2_5 () Int)
(declare-fun cell_3_5 () Int)
(declare-fun cell_4_5 () Int)
(declare-fun cell_5_5 () Int)
(declare-fun cell_6_5 () Int)
(declare-fun cell_7_5 () Int)
(declare-fun cell_8_5 () Int)
(declare-fun cell_9_5 () Int)
(declare-fun cell_1_6 () Int)
(declare-fun cell_2_6 () Int)
(declare-fun cell_3_6 () Int)
(declare-fun cell_4_6 () Int)
(declare-fun cell_5_6 () Int)
(declare-fun cell_6_6 () Int)
(declare-fun cell_7_6 () Int)
(declare-fun cell_8_6 () Int)
(declare-fun cell_9_6 () Int)
(declare-fun cell_1_7 () Int)
(declare-fun cell_2_7 () Int)
(declare-fun cell_3_7 () Int)
(declare-fun cell_4_7 () Int)
(declare-fun cell_5_7 () Int)
(declare-fun cell_6_7 () Int)
(declare-fun cell_7_7 () Int)
(declare-fun cell_8_7 () Int)
(declare-fun cell_9_7 () Int)
(declare-fun cell_1_8 () Int)
(declare-fun cell_2_8 () Int)
(declare-fun cell_3_8 () Int)
(declare-fun cell_4_8 () Int)
(declare-fun cell_5_8 () Int)
(declare-fun cell_6_8 () Int)
(declare-fun cell_7_8 () Int)
(declare-fun cell_8_8 () Int)
(declare-fun cell_9_8 () Int)
(declare-fun cell_1_9 () Int)
(declare-fun cell_2_9 () Int)
(declare-fun cell_3_9 () Int)
(declare-fun cell_4_9 () Int)
(declare-fun cell_5_9 () Int)
(declare-fun cell_6_9 () Int)
(declare-fun cell_7_9 () Int)
(declare-fun cell_8_9 () Int)
(declare-fun cell_9_9 () Int)
(assert
 (let (($x1095 (= cell_1_1 9)))
 (let (($x13 (= cell_1_1 8)))
 (let (($x885 (= cell_1_1 7)))
 (let (($x82 (= cell_1_1 6)))
 (let (($x835 (= cell_1_1 5)))
 (let (($x496 (= cell_1_1 4)))
 (let (($x1546 (= cell_1_1 3)))
 (let (($x29 (= cell_1_1 2)))
 (let (($x1311 (= cell_1_1 1)))
 (or $x1311 $x29 $x1546 $x496 $x835 $x82 $x885 $x13 $x1095)))))))))))
(assert
 (let (($x1550 (= cell_2_1 9)))
 (let (($x1008 (= cell_2_1 8)))
 (let (($x1404 (= cell_2_1 7)))
 (let (($x971 (= cell_2_1 6)))
 (let (($x1317 (= cell_2_1 5)))
 (let (($x475 (= cell_2_1 4)))
 (let (($x650 (= cell_2_1 3)))
 (let (($x318 (= cell_2_1 2)))
 (let (($x524 (= cell_2_1 1)))
 (or $x524 $x318 $x650 $x475 $x1317 $x971 $x1404 $x1008 $x1550)))))))))))
(assert
 (let (($x1507 (= cell_3_1 9)))
 (let (($x490 (= cell_3_1 8)))
 (let (($x1109 (= cell_3_1 7)))
 (let (($x906 (= cell_3_1 6)))
 (let (($x604 (= cell_3_1 5)))
 (let (($x278 (= cell_3_1 4)))
 (let (($x1338 (= cell_3_1 3)))
 (let (($x181 (= cell_3_1 2)))
 (let (($x323 (= cell_3_1 1)))
 (or $x323 $x181 $x1338 $x278 $x604 $x906 $x1109 $x490 $x1507)))))))))))
(assert
 (let (($x561 (= cell_4_1 9)))
 (let (($x878 (= cell_4_1 8)))
 (let (($x1235 (= cell_4_1 7)))
 (let (($x644 (= cell_4_1 6)))
 (let (($x1321 (= cell_4_1 5)))
 (let (($x1188 (= cell_4_1 4)))
 (let (($x177 (= cell_4_1 3)))
 (let (($x778 (= cell_4_1 2)))
 (let (($x416 (= cell_4_1 1)))
 (or $x416 $x778 $x177 $x1188 $x1321 $x644 $x1235 $x878 $x561)))))))))))
(assert
 (let (($x329 (= cell_5_1 9)))
 (let (($x43 (= cell_5_1 8)))
 (let (($x95 (= cell_5_1 7)))
 (let (($x398 (= cell_5_1 6)))
 (let (($x1294 (= cell_5_1 5)))
 (let (($x766 (= cell_5_1 4)))
 (let (($x291 (= cell_5_1 3)))
 (let (($x571 (= cell_5_1 2)))
 (let (($x556 (= cell_5_1 1)))
 (or $x556 $x571 $x291 $x766 $x1294 $x398 $x95 $x43 $x329)))))))))))
(assert
 (let (($x1007 (= cell_6_1 9)))
 (let (($x683 (= cell_6_1 8)))
 (let (($x608 (= cell_6_1 7)))
 (let (($x251 (= cell_6_1 6)))
 (let (($x188 (= cell_6_1 5)))
 (let (($x486 (= cell_6_1 4)))
 (let (($x133 (= cell_6_1 3)))
 (let (($x1085 (= cell_6_1 2)))
 (let (($x220 (= cell_6_1 1)))
 (or $x220 $x1085 $x133 $x486 $x188 $x251 $x608 $x683 $x1007)))))))))))
(assert
 (let (($x12 (= cell_7_1 9)))
 (let (($x620 (= cell_7_1 8)))
 (let (($x963 (= cell_7_1 7)))
 (let (($x1243 (= cell_7_1 6)))
 (let (($x995 (= cell_7_1 5)))
 (let (($x246 (= cell_7_1 4)))
 (let (($x641 (= cell_7_1 3)))
 (let (($x26 (= cell_7_1 2)))
 (let (($x1034 (= cell_7_1 1)))
 (or $x1034 $x26 $x641 $x246 $x995 $x1243 $x963 $x620 $x12)))))))))))
(assert
 (let (($x902 (= cell_8_1 9)))
 (let (($x396 (= cell_8_1 8)))
 (let (($x54 (= cell_8_1 7)))
 (let (($x1259 (= cell_8_1 6)))
 (let (($x830 (= cell_8_1 5)))
 (let (($x269 (= cell_8_1 4)))
 (let (($x172 (= cell_8_1 3)))
 (let (($x1328 (= cell_8_1 2)))
 (let (($x132 (= cell_8_1 1)))
 (or $x132 $x1328 $x172 $x269 $x830 $x1259 $x54 $x396 $x902)))))))))))
(assert
 (let (($x1326 (= cell_9_1 9)))
 (let (($x598 (= cell_9_1 8)))
 (let (($x1012 (= cell_9_1 7)))
 (let (($x888 (= cell_9_1 6)))
 (let (($x302 (= cell_9_1 5)))
 (let (($x1050 (= cell_9_1 4)))
 (let (($x1154 (= cell_9_1 3)))
 (let (($x479 (= cell_9_1 2)))
 (let (($x119 (= cell_9_1 1)))
 (or $x119 $x479 $x1154 $x1050 $x302 $x888 $x1012 $x598 $x1326)))))))))))
(assert
 (let (($x703 (= cell_1_2 9)))
 (let (($x322 (= cell_1_2 8)))
 (let (($x304 (= cell_1_2 7)))
 (let (($x1384 (= cell_1_2 6)))
 (let (($x142 (= cell_1_2 5)))
 (let (($x883 (= cell_1_2 4)))
 (let (($x974 (= cell_1_2 3)))
 (let (($x621 (= cell_1_2 2)))
 (let (($x1267 (= cell_1_2 1)))
 (or $x1267 $x621 $x974 $x883 $x142 $x1384 $x304 $x322 $x703)))))))))))
(assert
 (let (($x862 (= cell_2_2 9)))
 (let (($x340 (= cell_2_2 8)))
 (let (($x421 (= cell_2_2 7)))
 (let (($x1077 (= cell_2_2 6)))
 (let (($x1613 (= cell_2_2 5)))
 (let (($x1083 (= cell_2_2 4)))
 (let (($x857 (= cell_2_2 3)))
 (let (($x583 (= cell_2_2 2)))
 (let (($x1293 (= cell_2_2 1)))
 (or $x1293 $x583 $x857 $x1083 $x1613 $x1077 $x421 $x340 $x862)))))))))))
(assert
 (let (($x689 (= cell_3_2 9)))
 (let (($x933 (= cell_3_2 8)))
 (let (($x137 (= cell_3_2 7)))
 (let (($x843 (= cell_3_2 6)))
 (let (($x1250 (= cell_3_2 5)))
 (let (($x1106 (= cell_3_2 4)))
 (let (($x693 (= cell_3_2 3)))
 (let (($x238 (= cell_3_2 2)))
 (let (($x732 (= cell_3_2 1)))
 (or $x732 $x238 $x693 $x1106 $x1250 $x843 $x137 $x933 $x689)))))))))))
(assert
 (let (($x1269 (= cell_4_2 9)))
 (let (($x1127 (= cell_4_2 8)))
 (let (($x1029 (= cell_4_2 7)))
 (let (($x1357 (= cell_4_2 6)))
 (let (($x1590 (= cell_4_2 5)))
 (let (($x1387 (= cell_4_2 4)))
 (let (($x816 (= cell_4_2 3)))
 (let (($x657 (= cell_4_2 2)))
 (let (($x1254 (= cell_4_2 1)))
 (or $x1254 $x657 $x816 $x1387 $x1590 $x1357 $x1029 $x1127 $x1269)))))))))))
(assert
 (let (($x1069 (= cell_5_2 9)))
 (let (($x1242 (= cell_5_2 8)))
 (let (($x173 (= cell_5_2 7)))
 (let (($x1197 (= cell_5_2 6)))
 (let (($x597 (= cell_5_2 5)))
 (let (($x415 (= cell_5_2 4)))
 (let (($x1273 (= cell_5_2 3)))
 (let (($x957 (= cell_5_2 2)))
 (let (($x193 (= cell_5_2 1)))
 (or $x193 $x957 $x1273 $x415 $x597 $x1197 $x173 $x1242 $x1069)))))))))))
(assert
 (let (($x241 (= cell_6_2 9)))
 (let (($x146 (= cell_6_2 8)))
 (let (($x839 (= cell_6_2 7)))
 (let (($x40 (= cell_6_2 6)))
 (let (($x1231 (= cell_6_2 5)))
 (let (($x977 (= cell_6_2 4)))
 (let (($x1037 (= cell_6_2 3)))
 (let (($x900 (= cell_6_2 2)))
 (let (($x489 (= cell_6_2 1)))
 (or $x489 $x900 $x1037 $x977 $x1231 $x40 $x839 $x146 $x241)))))))))))
(assert
 (let (($x1170 (= cell_7_2 9)))
 (let (($x614 (= cell_7_2 8)))
 (let (($x1430 (= cell_7_2 7)))
 (let (($x456 (= cell_7_2 6)))
 (let (($x1192 (= cell_7_2 5)))
 (let (($x1220 (= cell_7_2 4)))
 (let (($x317 (= cell_7_2 3)))
 (let (($x1291 (= cell_7_2 2)))
 (let (($x1174 (= cell_7_2 1)))
 (or $x1174 $x1291 $x317 $x1220 $x1192 $x456 $x1430 $x614 $x1170)))))))))))
(assert
 (let (($x1498 (= cell_8_2 9)))
 (let (($x812 (= cell_8_2 8)))
 (let (($x543 (= cell_8_2 7)))
 (let (($x214 (= cell_8_2 6)))
 (let (($x937 (= cell_8_2 5)))
 (let (($x591 (= cell_8_2 4)))
 (let (($x111 (= cell_8_2 3)))
 (let (($x836 (= cell_8_2 2)))
 (let (($x185 (= cell_8_2 1)))
 (or $x185 $x836 $x111 $x591 $x937 $x214 $x543 $x812 $x1498)))))))))))
(assert
 (let (($x874 (= cell_9_2 9)))
 (let (($x196 (= cell_9_2 8)))
 (let (($x1240 (= cell_9_2 7)))
 (let (($x169 (= cell_9_2 6)))
 (let (($x1573 (= cell_9_2 5)))
 (let (($x631 (= cell_9_2 4)))
 (let (($x1049 (= cell_9_2 3)))
 (let (($x465 (= cell_9_2 2)))
 (let (($x87 (= cell_9_2 1)))
 (or $x87 $x465 $x1049 $x631 $x1573 $x169 $x1240 $x196 $x874)))))))))))
(assert
 (let (($x1090 (= cell_1_3 9)))
 (let (($x1296 (= cell_1_3 8)))
 (let (($x991 (= cell_1_3 7)))
 (let (($x688 (= cell_1_3 6)))
 (let (($x850 (= cell_1_3 5)))
 (let (($x797 (= cell_1_3 4)))
 (let (($x584 (= cell_1_3 3)))
 (let (($x1228 (= cell_1_3 2)))
 (let (($x576 (= cell_1_3 1)))
 (or $x576 $x1228 $x584 $x797 $x850 $x688 $x991 $x1296 $x1090)))))))))))
(assert
 (let (($x1096 (= cell_2_3 9)))
 (let (($x63 (= cell_2_3 8)))
 (let (($x235 (= cell_2_3 7)))
 (let (($x1193 (= cell_2_3 6)))
 (let (($x1411 (= cell_2_3 5)))
 (let (($x1324 (= cell_2_3 4)))
 (let (($x785 (= cell_2_3 3)))
 (let (($x872 (= cell_2_3 2)))
 (let (($x676 (= cell_2_3 1)))
 (or $x676 $x872 $x785 $x1324 $x1411 $x1193 $x235 $x63 $x1096)))))))))))
(assert
 (let (($x1223 (= cell_3_3 9)))
 (let (($x189 (= cell_3_3 8)))
 (let (($x803 (= cell_3_3 7)))
 (let (($x1295 (= cell_3_3 6)))
 (let (($x652 (= cell_3_3 5)))
 (let (($x1453 (= cell_3_3 4)))
 (let (($x596 (= cell_3_3 3)))
 (let (($x998 (= cell_3_3 2)))
 (let (($x813 (= cell_3_3 1)))
 (or $x813 $x998 $x596 $x1453 $x652 $x1295 $x803 $x189 $x1223)))))))))))
(assert
 (let (($x1363 (= cell_4_3 9)))
 (let (($x640 (= cell_4_3 8)))
 (let (($x1462 (= cell_4_3 7)))
 (let (($x1436 (= cell_4_3 6)))
 (let (($x1537 (= cell_4_3 5)))
 (let (($x1072 (= cell_4_3 4)))
 (let (($x938 (= cell_4_3 3)))
 (let (($x649 (= cell_4_3 2)))
 (let (($x678 (= cell_4_3 1)))
 (or $x678 $x649 $x938 $x1072 $x1537 $x1436 $x1462 $x640 $x1363)))))))))))
(assert
 (let (($x1566 (= cell_5_3 9)))
 (let (($x311 (= cell_5_3 8)))
 (let (($x197 (= cell_5_3 7)))
 (let (($x1180 (= cell_5_3 6)))
 (let (($x754 (= cell_5_3 5)))
 (let (($x594 (= cell_5_3 4)))
 (let (($x1138 (= cell_5_3 3)))
 (let (($x642 (= cell_5_3 2)))
 (let (($x57 (= cell_5_3 1)))
 (or $x57 $x642 $x1138 $x594 $x754 $x1180 $x197 $x311 $x1566)))))))))))
(assert
 (let (($x380 (= cell_6_3 9)))
 (let (($x1031 (= cell_6_3 8)))
 (let (($x1167 (= cell_6_3 7)))
 (let (($x970 (= cell_6_3 6)))
 (let (($x1373 (= cell_6_3 5)))
 (let (($x22 (= cell_6_3 4)))
 (let (($x1136 (= cell_6_3 3)))
 (let (($x85 (= cell_6_3 2)))
 (let (($x334 (= cell_6_3 1)))
 (or $x334 $x85 $x1136 $x22 $x1373 $x970 $x1167 $x1031 $x380)))))))))))
(assert
 (let (($x179 (= cell_7_3 9)))
 (let (($x412 (= cell_7_3 8)))
 (let (($x589 (= cell_7_3 7)))
 (let (($x806 (= cell_7_3 6)))
 (let (($x671 (= cell_7_3 5)))
 (let (($x1039 (= cell_7_3 4)))
 (let (($x1597 (= cell_7_3 3)))
 (let (($x1165 (= cell_7_3 2)))
 (let (($x536 (= cell_7_3 1)))
 (or $x536 $x1165 $x1597 $x1039 $x671 $x806 $x589 $x412 $x179)))))))))))
(assert
 (let (($x458 (= cell_8_3 9)))
 (let (($x107 (= cell_8_3 8)))
 (let (($x1471 (= cell_8_3 7)))
 (let (($x834 (= cell_8_3 6)))
 (let (($x1276 (= cell_8_3 5)))
 (let (($x287 (= cell_8_3 4)))
 (let (($x946 (= cell_8_3 3)))
 (let (($x204 (= cell_8_3 2)))
 (let (($x626 (= cell_8_3 1)))
 (or $x626 $x204 $x946 $x287 $x1276 $x834 $x1471 $x107 $x458)))))))))))
(assert
 (let (($x516 (= cell_9_3 9)))
 (let (($x810 (= cell_9_3 8)))
 (let (($x1463 (= cell_9_3 7)))
 (let (($x315 (= cell_9_3 6)))
 (let (($x282 (= cell_9_3 5)))
 (let (($x1107 (= cell_9_3 4)))
 (let (($x388 (= cell_9_3 3)))
 (let (($x298 (= cell_9_3 2)))
 (let (($x699 (= cell_9_3 1)))
 (or $x699 $x298 $x388 $x1107 $x282 $x315 $x1463 $x810 $x516)))))))))))
(assert
 (let (($x775 (= cell_1_4 9)))
 (let (($x20 (= cell_1_4 8)))
 (let (($x337 (= cell_1_4 7)))
 (let (($x512 (= cell_1_4 6)))
 (let (($x913 (= cell_1_4 5)))
 (let (($x77 (= cell_1_4 4)))
 (let (($x585 (= cell_1_4 3)))
 (let (($x988 (= cell_1_4 2)))
 (let (($x155 (= cell_1_4 1)))
 (or $x155 $x988 $x585 $x77 $x913 $x512 $x337 $x20 $x775)))))))))))
(assert
 (let (($x786 (= cell_2_4 9)))
 (let (($x800 (= cell_2_4 8)))
 (let (($x1530 (= cell_2_4 7)))
 (let (($x1111 (= cell_2_4 6)))
 (let (($x1219 (= cell_2_4 5)))
 (let (($x1310 (= cell_2_4 4)))
 (let (($x1166 (= cell_2_4 3)))
 (let (($x224 (= cell_2_4 2)))
 (let (($x135 (= cell_2_4 1)))
 (or $x135 $x224 $x1166 $x1310 $x1219 $x1111 $x1530 $x800 $x786)))))))))))
(assert
 (let (($x1087 (= cell_3_4 9)))
 (let (($x245 (= cell_3_4 8)))
 (let (($x501 (= cell_3_4 7)))
 (let (($x901 (= cell_3_4 6)))
 (let (($x805 (= cell_3_4 5)))
 (let (($x947 (= cell_3_4 4)))
 (let (($x402 (= cell_3_4 3)))
 (let (($x910 (= cell_3_4 2)))
 (let (($x523 (= cell_3_4 1)))
 (or $x523 $x910 $x402 $x947 $x805 $x901 $x501 $x245 $x1087)))))))))))
(assert
 (let (($x452 (= cell_4_4 9)))
 (let (($x1178 (= cell_4_4 8)))
 (let (($x1427 (= cell_4_4 7)))
 (let (($x758 (= cell_4_4 6)))
 (let (($x1161 (= cell_4_4 5)))
 (let (($x1066 (= cell_4_4 4)))
 (let (($x1284 (= cell_4_4 3)))
 (let (($x395 (= cell_4_4 2)))
 (let (($x1354 (= cell_4_4 1)))
 (or $x1354 $x395 $x1284 $x1066 $x1161 $x758 $x1427 $x1178 $x452)))))))))))
(assert
 (let (($x148 (= cell_5_4 9)))
 (let (($x801 (= cell_5_4 8)))
 (let (($x1125 (= cell_5_4 7)))
 (let (($x759 (= cell_5_4 6)))
 (let (($x37 (= cell_5_4 5)))
 (let (($x176 (= cell_5_4 4)))
 (let (($x131 (= cell_5_4 3)))
 (let (($x1010 (= cell_5_4 2)))
 (let (($x343 (= cell_5_4 1)))
 (or $x343 $x1010 $x131 $x176 $x37 $x759 $x1125 $x801 $x148)))))))))))
(assert
 (let (($x1264 (= cell_6_4 9)))
 (let (($x210 (= cell_6_4 8)))
 (let (($x588 (= cell_6_4 7)))
 (let (($x1030 (= cell_6_4 6)))
 (let (($x140 (= cell_6_4 5)))
 (let (($x1509 (= cell_6_4 4)))
 (let (($x853 (= cell_6_4 3)))
 (let (($x1022 (= cell_6_4 2)))
 (let (($x81 (= cell_6_4 1)))
 (or $x81 $x1022 $x853 $x1509 $x140 $x1030 $x588 $x210 $x1264)))))))))))
(assert
 (let (($x534 (= cell_7_4 9)))
 (let (($x696 (= cell_7_4 8)))
 (let (($x917 (= cell_7_4 7)))
 (let (($x482 (= cell_7_4 6)))
 (let (($x186 (= cell_7_4 5)))
 (let (($x792 (= cell_7_4 4)))
 (let (($x784 (= cell_7_4 3)))
 (let (($x884 (= cell_7_4 2)))
 (let (($x457 (= cell_7_4 1)))
 (or $x457 $x884 $x784 $x792 $x186 $x482 $x917 $x696 $x534)))))))))))
(assert
 (let (($x1076 (= cell_8_4 9)))
 (let (($x914 (= cell_8_4 8)))
 (let (($x488 (= cell_8_4 7)))
 (let (($x1470 (= cell_8_4 6)))
 (let (($x161 (= cell_8_4 5)))
 (let (($x1222 (= cell_8_4 4)))
 (let (($x180 (= cell_8_4 3)))
 (let (($x670 (= cell_8_4 2)))
 (let (($x502 (= cell_8_4 1)))
 (or $x502 $x670 $x180 $x1222 $x161 $x1470 $x488 $x914 $x1076)))))))))))
(assert
 (let (($x962 (= cell_9_4 9)))
 (let (($x1312 (= cell_9_4 8)))
 (let (($x1013 (= cell_9_4 7)))
 (let (($x1282 (= cell_9_4 6)))
 (let (($x183 (= cell_9_4 5)))
 (let (($x1105 (= cell_9_4 4)))
 (let (($x1191 (= cell_9_4 3)))
 (let (($x435 (= cell_9_4 2)))
 (let (($x166 (= cell_9_4 1)))
 (or $x166 $x435 $x1191 $x1105 $x183 $x1282 $x1013 $x1312 $x962)))))))))))
(assert
 (let (($x1305 (= cell_1_5 9)))
 (let (($x866 (= cell_1_5 8)))
 (let (($x30 (= cell_1_5 7)))
 (let (($x955 (= cell_1_5 6)))
 (let (($x83 (= cell_1_5 5)))
 (let (($x316 (= cell_1_5 4)))
 (let (($x509 (= cell_1_5 3)))
 (let (($x1497 (= cell_1_5 2)))
 (let (($x716 (= cell_1_5 1)))
 (or $x716 $x1497 $x509 $x316 $x83 $x955 $x30 $x866 $x1305)))))))))))
(assert
 (let (($x1532 (= cell_2_5 9)))
 (let (($x854 (= cell_2_5 8)))
 (let (($x684 (= cell_2_5 7)))
 (let (($x474 (= cell_2_5 6)))
 (let (($x1103 (= cell_2_5 5)))
 (let (($x982 (= cell_2_5 4)))
 (let (($x331 (= cell_2_5 3)))
 (let (($x1131 (= cell_2_5 2)))
 (let (($x681 (= cell_2_5 1)))
 (or $x681 $x1131 $x331 $x982 $x1103 $x474 $x684 $x854 $x1532)))))))))))
(assert
 (let (($x1378 (= cell_3_5 9)))
 (let (($x231 (= cell_3_5 8)))
 (let (($x243 (= cell_3_5 7)))
 (let (($x1483 (= cell_3_5 6)))
 (let (($x1260 (= cell_3_5 5)))
 (let (($x455 (= cell_3_5 4)))
 (let (($x383 (= cell_3_5 3)))
 (let (($x554 (= cell_3_5 2)))
 (let (($x1275 (= cell_3_5 1)))
 (or $x1275 $x554 $x383 $x455 $x1260 $x1483 $x243 $x231 $x1378)))))))))))
(assert
 (let (($x537 (= cell_4_5 9)))
 (let (($x582 (= cell_4_5 8)))
 (let (($x1253 (= cell_4_5 7)))
 (let (($x894 (= cell_4_5 6)))
 (let (($x573 (= cell_4_5 5)))
 (let (($x338 (= cell_4_5 4)))
 (let (($x487 (= cell_4_5 3)))
 (let (($x1042 (= cell_4_5 2)))
 (let (($x1132 (= cell_4_5 1)))
 (or $x1132 $x1042 $x487 $x338 $x573 $x894 $x1253 $x582 $x537)))))))))))
(assert
 (let (($x1047 (= cell_5_5 9)))
 (let (($x174 (= cell_5_5 8)))
 (let (($x1419 (= cell_5_5 7)))
 (let (($x399 (= cell_5_5 6)))
 (let (($x356 (= cell_5_5 5)))
 (let (($x928 (= cell_5_5 4)))
 (let (($x889 (= cell_5_5 3)))
 (let (($x1189 (= cell_5_5 2)))
 (let (($x1355 (= cell_5_5 1)))
 (or $x1355 $x1189 $x889 $x928 $x356 $x399 $x1419 $x174 $x1047)))))))))))
(assert
 (let (($x1225 (= cell_6_5 9)))
 (let (($x526 (= cell_6_5 8)))
 (let (($x544 (= cell_6_5 7)))
 (let (($x880 (= cell_6_5 6)))
 (let (($x1415 (= cell_6_5 5)))
 (let (($x91 (= cell_6_5 4)))
 (let (($x713 (= cell_6_5 3)))
 (let (($x128 (= cell_6_5 2)))
 (let (($x1088 (= cell_6_5 1)))
 (or $x1088 $x128 $x713 $x91 $x1415 $x880 $x544 $x526 $x1225)))))))))))
(assert
 (let (($x651 (= cell_7_5 9)))
 (let (($x143 (= cell_7_5 8)))
 (let (($x700 (= cell_7_5 7)))
 (let (($x503 (= cell_7_5 6)))
 (let (($x1033 (= cell_7_5 5)))
 (let (($x1416 (= cell_7_5 4)))
 (let (($x342 (= cell_7_5 3)))
 (let (($x745 (= cell_7_5 2)))
 (let (($x1529 (= cell_7_5 1)))
 (or $x1529 $x745 $x342 $x1416 $x1033 $x503 $x700 $x143 $x651)))))))))))
(assert
 (let (($x202 (= cell_8_5 9)))
 (let (($x727 (= cell_8_5 8)))
 (let (($x553 (= cell_8_5 7)))
 (let (($x568 (= cell_8_5 6)))
 (let (($x750 (= cell_8_5 5)))
 (let (($x227 (= cell_8_5 4)))
 (let (($x1221 (= cell_8_5 3)))
 (let (($x687 (= cell_8_5 2)))
 (let (($x720 (= cell_8_5 1)))
 (or $x720 $x687 $x1221 $x227 $x750 $x568 $x553 $x727 $x202)))))))))))
(assert
 (let (($x373 (= cell_9_5 9)))
 (let (($x230 (= cell_9_5 8)))
 (let (($x1437 (= cell_9_5 7)))
 (let (($x1175 (= cell_9_5 6)))
 (let (($x1056 (= cell_9_5 5)))
 (let (($x122 (= cell_9_5 4)))
 (let (($x736 (= cell_9_5 3)))
 (let (($x712 (= cell_9_5 2)))
 (let (($x265 (= cell_9_5 1)))
 (or $x265 $x712 $x736 $x122 $x1056 $x1175 $x1437 $x230 $x373)))))))))))
(assert
 (let (($x625 (= cell_1_6 9)))
 (let (($x1337 (= cell_1_6 8)))
 (let (($x1226 (= cell_1_6 7)))
 (let (($x944 (= cell_1_6 6)))
 (let (($x352 (= cell_1_6 5)))
 (let (($x222 (= cell_1_6 4)))
 (let (($x1353 (= cell_1_6 3)))
 (let (($x1372 (= cell_1_6 2)))
 (let (($x1474 (= cell_1_6 1)))
 (or $x1474 $x1372 $x1353 $x222 $x352 $x944 $x1226 $x1337 $x625)))))))))))
(assert
 (let (($x802 (= cell_2_6 9)))
 (let (($x674 (= cell_2_6 8)))
 (let (($x62 (= cell_2_6 7)))
 (let (($x911 (= cell_2_6 6)))
 (let (($x1078 (= cell_2_6 5)))
 (let (($x154 (= cell_2_6 4)))
 (let (($x147 (= cell_2_6 3)))
 (let (($x170 (= cell_2_6 2)))
 (let (($x375 (= cell_2_6 1)))
 (or $x375 $x170 $x147 $x154 $x1078 $x911 $x62 $x674 $x802)))))))))))
(assert
 (let (($x358 (= cell_3_6 9)))
 (let (($x601 (= cell_3_6 8)))
 (let (($x1176 (= cell_3_6 7)))
 (let (($x426 (= cell_3_6 6)))
 (let (($x271 (= cell_3_6 5)))
 (let (($x789 (= cell_3_6 4)))
 (let (($x613 (= cell_3_6 3)))
 (let (($x1020 (= cell_3_6 2)))
 (let (($x1145 (= cell_3_6 1)))
 (or $x1145 $x1020 $x613 $x789 $x271 $x426 $x1176 $x601 $x358)))))))))))
(assert
 (let (($x28 (= cell_4_6 9)))
 (let (($x656 (= cell_4_6 8)))
 (let (($x158 (= cell_4_6 7)))
 (let (($x120 (= cell_4_6 6)))
 (let (($x1102 (= cell_4_6 5)))
 (let (($x867 (= cell_4_6 4)))
 (let (($x1432 (= cell_4_6 3)))
 (let (($x429 (= cell_4_6 2)))
 (let (($x967 (= cell_4_6 1)))
 (or $x967 $x429 $x1432 $x867 $x1102 $x120 $x158 $x656 $x28)))))))))))
(assert
 (let (($x1456 (= cell_5_6 9)))
 (let (($x1139 (= cell_5_6 8)))
 (let (($x1442 (= cell_5_6 7)))
 (let (($x344 (= cell_5_6 6)))
 (let (($x966 (= cell_5_6 5)))
 (let (($x907 (= cell_5_6 4)))
 (let (($x497 (= cell_5_6 3)))
 (let (($x460 (= cell_5_6 2)))
 (let (($x1169 (= cell_5_6 1)))
 (or $x1169 $x460 $x497 $x907 $x966 $x344 $x1442 $x1139 $x1456)))))))))))
(assert
 (let (($x679 (= cell_6_6 9)))
 (let (($x827 (= cell_6_6 8)))
 (let (($x1451 (= cell_6_6 7)))
 (let (($x821 (= cell_6_6 6)))
 (let (($x659 (= cell_6_6 5)))
 (let (($x579 (= cell_6_6 4)))
 (let (($x469 (= cell_6_6 3)))
 (let (($x44 (= cell_6_6 2)))
 (let (($x130 (= cell_6_6 1)))
 (or $x130 $x44 $x469 $x579 $x659 $x821 $x1451 $x827 $x679)))))))))))
(assert
 (let (($x1048 (= cell_7_6 9)))
 (let (($x958 (= cell_7_6 8)))
 (let (($x845 (= cell_7_6 7)))
 (let (($x384 (= cell_7_6 6)))
 (let (($x1144 (= cell_7_6 5)))
 (let (($x1320 (= cell_7_6 4)))
 (let (($x74 (= cell_7_6 3)))
 (let (($x195 (= cell_7_6 2)))
 (let (($x518 (= cell_7_6 1)))
 (or $x518 $x195 $x74 $x1320 $x1144 $x384 $x845 $x958 $x1048)))))))))))
(assert
 (let (($x718 (= cell_8_6 9)))
 (let (($x1543 (= cell_8_6 8)))
 (let (($x1421 (= cell_8_6 7)))
 (let (($x804 (= cell_8_6 6)))
 (let (($x796 (= cell_8_6 5)))
 (let (($x562 (= cell_8_6 4)))
 (let (($x507 (= cell_8_6 3)))
 (let (($x283 (= cell_8_6 2)))
 (let (($x1402 (= cell_8_6 1)))
 (or $x1402 $x283 $x507 $x562 $x796 $x804 $x1421 $x1543 $x718)))))))))))
(assert
 (let (($x274 (= cell_9_6 9)))
 (let (($x545 (= cell_9_6 8)))
 (let (($x268 (= cell_9_6 7)))
 (let (($x1019 (= cell_9_6 6)))
 (let (($x1143 (= cell_9_6 5)))
 (let (($x289 (= cell_9_6 4)))
 (let (($x370 (= cell_9_6 3)))
 (let (($x702 (= cell_9_6 2)))
 (let (($x1041 (= cell_9_6 1)))
 (or $x1041 $x702 $x370 $x289 $x1143 $x1019 $x268 $x545 $x274)))))))))))
(assert
 (let (($x371 (= cell_1_7 9)))
 (let (($x590 (= cell_1_7 8)))
 (let (($x1198 (= cell_1_7 7)))
 (let (($x1515 (= cell_1_7 6)))
 (let (($x609 (= cell_1_7 5)))
 (let (($x406 (= cell_1_7 4)))
 (let (($x569 (= cell_1_7 3)))
 (let (($x1332 (= cell_1_7 2)))
 (let (($x634 (= cell_1_7 1)))
 (or $x634 $x1332 $x569 $x406 $x609 $x1515 $x1198 $x590 $x371)))))))))))
(assert
 (let (($x325 (= cell_2_7 9)))
 (let (($x936 (= cell_2_7 8)))
 (let (($x530 (= cell_2_7 7)))
 (let (($x1224 (= cell_2_7 6)))
 (let (($x923 (= cell_2_7 5)))
 (let (($x411 (= cell_2_7 4)))
 (let (($x1330 (= cell_2_7 3)))
 (let (($x690 (= cell_2_7 2)))
 (let (($x1133 (= cell_2_7 1)))
 (or $x1133 $x690 $x1330 $x411 $x923 $x1224 $x530 $x936 $x325)))))))))))
(assert
 (let (($x743 (= cell_3_7 9)))
 (let (($x126 (= cell_3_7 8)))
 (let (($x547 (= cell_3_7 7)))
 (let (($x939 (= cell_3_7 6)))
 (let (($x363 (= cell_3_7 5)))
 (let (($x600 (= cell_3_7 4)))
 (let (($x979 (= cell_3_7 3)))
 (let (($x1196 (= cell_3_7 2)))
 (let (($x201 (= cell_3_7 1)))
 (or $x201 $x1196 $x979 $x600 $x363 $x939 $x547 $x126 $x743)))))))))))
(assert
 (let (($x595 (= cell_4_7 9)))
 (let (($x153 (= cell_4_7 8)))
 (let (($x254 (= cell_4_7 7)))
 (let (($x735 (= cell_4_7 6)))
 (let (($x84 (= cell_4_7 5)))
 (let (($x1163 (= cell_4_7 4)))
 (let (($x1307 (= cell_4_7 3)))
 (let (($x385 (= cell_4_7 2)))
 (let (($x1412 (= cell_4_7 1)))
 (or $x1412 $x385 $x1307 $x1163 $x84 $x735 $x254 $x153 $x595)))))))))))
(assert
 (let (($x46 (= cell_5_7 9)))
 (let (($x1445 (= cell_5_7 8)))
 (let (($x1469 (= cell_5_7 7)))
 (let (($x1241 (= cell_5_7 6)))
 (let (($x751 (= cell_5_7 5)))
 (let (($x717 (= cell_5_7 4)))
 (let (($x764 (= cell_5_7 3)))
 (let (($x1370 (= cell_5_7 2)))
 (let (($x261 (= cell_5_7 1)))
 (or $x261 $x1370 $x764 $x717 $x751 $x1241 $x1469 $x1445 $x46)))))))))))
(assert
 (let (($x1026 (= cell_6_7 9)))
 (let (($x194 (= cell_6_7 8)))
 (let (($x459 (= cell_6_7 7)))
 (let (($x1183 (= cell_6_7 6)))
 (let (($x78 (= cell_6_7 5)))
 (let (($x580 (= cell_6_7 4)))
 (let (($x1051 (= cell_6_7 3)))
 (let (($x574 (= cell_6_7 2)))
 (let (($x247 (= cell_6_7 1)))
 (or $x247 $x574 $x1051 $x580 $x78 $x1183 $x459 $x194 $x1026)))))))))))
(assert
 (let (($x1300 (= cell_7_7 9)))
 (let (($x773 (= cell_7_7 8)))
 (let (($x134 (= cell_7_7 7)))
 (let (($x327 (= cell_7_7 6)))
 (let (($x817 (= cell_7_7 5)))
 (let (($x1190 (= cell_7_7 4)))
 (let (($x1426 (= cell_7_7 3)))
 (let (($x1021 (= cell_7_7 2)))
 (let (($x1173 (= cell_7_7 1)))
 (or $x1173 $x1021 $x1426 $x1190 $x817 $x327 $x134 $x773 $x1300)))))))))))
(assert
 (let (($x1386 (= cell_8_7 9)))
 (let (($x483 (= cell_8_7 8)))
 (let (($x1401 (= cell_8_7 7)))
 (let (($x1362 (= cell_8_7 6)))
 (let (($x663 (= cell_8_7 5)))
 (let (($x945 (= cell_8_7 4)))
 (let (($x49 (= cell_8_7 3)))
 (let (($x924 (= cell_8_7 2)))
 (let (($x1126 (= cell_8_7 1)))
 (or $x1126 $x924 $x49 $x945 $x663 $x1362 $x1401 $x483 $x1386)))))))))))
(assert
 (let (($x714 (= cell_9_7 9)))
 (let (($x390 (= cell_9_7 8)))
 (let (($x73 (= cell_9_7 7)))
 (let (($x367 (= cell_9_7 6)))
 (let (($x1557 (= cell_9_7 5)))
 (let (($x290 (= cell_9_7 4)))
 (let (($x662 (= cell_9_7 3)))
 (let (($x364 (= cell_9_7 2)))
 (let (($x1525 (= cell_9_7 1)))
 (or $x1525 $x364 $x662 $x290 $x1557 $x367 $x73 $x390 $x714)))))))))))
(assert
 (let (($x636 (= cell_1_8 9)))
 (let (($x221 (= cell_1_8 8)))
 (let (($x1075 (= cell_1_8 7)))
 (let (($x1186 (= cell_1_8 6)))
 (let (($x1274 (= cell_1_8 5)))
 (let (($x572 (= cell_1_8 4)))
 (let (($x191 (= cell_1_8 3)))
 (let (($x787 (= cell_1_8 2)))
 (let (($x270 (= cell_1_8 1)))
 (or $x270 $x787 $x191 $x572 $x1274 $x1186 $x1075 $x221 $x636)))))))))))
(assert
 (let (($x1396 (= cell_2_8 9)))
 (let (($x1447 (= cell_2_8 8)))
 (let (($x55 (= cell_2_8 7)))
 (let (($x868 (= cell_2_8 6)))
 (let (($x826 (= cell_2_8 5)))
 (let (($x1558 (= cell_2_8 4)))
 (let (($x1349 (= cell_2_8 3)))
 (let (($x528 (= cell_2_8 2)))
 (let (($x1121 (= cell_2_8 1)))
 (or $x1121 $x528 $x1349 $x1558 $x826 $x868 $x55 $x1447 $x1396)))))))))))
(assert
 (let (($x761 (= cell_3_8 9)))
 (let (($x244 (= cell_3_8 8)))
 (let (($x1205 (= cell_3_8 7)))
 (let (($x1461 (= cell_3_8 6)))
 (let (($x1148 (= cell_3_8 5)))
 (let (($x1499 (= cell_3_8 4)))
 (let (($x347 (= cell_3_8 3)))
 (let (($x782 (= cell_3_8 2)))
 (let (($x1407 (= cell_3_8 1)))
 (or $x1407 $x782 $x347 $x1499 $x1148 $x1461 $x1205 $x244 $x761)))))))))))
(assert
 (let (($x303 (= cell_4_8 9)))
 (let (($x1308 (= cell_4_8 8)))
 (let (($x654 (= cell_4_8 7)))
 (let (($x1179 (= cell_4_8 6)))
 (let (($x21 (= cell_4_8 5)))
 (let (($x446 (= cell_4_8 4)))
 (let (($x837 (= cell_4_8 3)))
 (let (($x704 (= cell_4_8 2)))
 (let (($x1286 (= cell_4_8 1)))
 (or $x1286 $x704 $x837 $x446 $x21 $x1179 $x654 $x1308 $x303)))))))))))
(assert
 (let (($x361 (= cell_5_8 9)))
 (let (($x1358 (= cell_5_8 8)))
 (let (($x360 (= cell_5_8 7)))
 (let (($x16 (= cell_5_8 6)))
 (let (($x1232 (= cell_5_8 5)))
 (let (($x682 (= cell_5_8 4)))
 (let (($x233 (= cell_5_8 3)))
 (let (($x1439 (= cell_5_8 2)))
 (let (($x694 (= cell_5_8 1)))
 (or $x694 $x1439 $x233 $x682 $x1232 $x16 $x360 $x1358 $x361)))))))))))
(assert
 (let (($x1155 (= cell_6_8 9)))
 (let (($x389 (= cell_6_8 8)))
 (let (($x443 (= cell_6_8 7)))
 (let (($x560 (= cell_6_8 6)))
 (let (($x1265 (= cell_6_8 5)))
 (let (($x136 (= cell_6_8 4)))
 (let (($x627 (= cell_6_8 3)))
 (let (($x1061 (= cell_6_8 2)))
 (let (($x969 (= cell_6_8 1)))
 (or $x969 $x1061 $x627 $x136 $x1265 $x560 $x443 $x389 $x1155)))))))))))
(assert
 (let (($x1278 (= cell_7_8 9)))
 (let (($x139 (= cell_7_8 8)))
 (let (($x1164 (= cell_7_8 7)))
 (let (($x633 (= cell_7_8 6)))
 (let (($x1409 (= cell_7_8 5)))
 (let (($x27 (= cell_7_8 4)))
 (let (($x1383 (= cell_7_8 3)))
 (let (($x1015 (= cell_7_8 2)))
 (let (($x1099 (= cell_7_8 1)))
 (or $x1099 $x1015 $x1383 $x27 $x1409 $x633 $x1164 $x139 $x1278)))))))))))
(assert
 (let (($x462 (= cell_8_8 9)))
 (let (($x1070 (= cell_8_8 8)))
 (let (($x444 (= cell_8_8 7)))
 (let (($x407 (= cell_8_8 6)))
 (let (($x581 (= cell_8_8 5)))
 (let (($x215 (= cell_8_8 4)))
 (let (($x793 (= cell_8_8 3)))
 (let (($x1524 (= cell_8_8 2)))
 (let (($x1112 (= cell_8_8 1)))
 (or $x1112 $x1524 $x793 $x215 $x581 $x407 $x444 $x1070 $x462)))))))))))
(assert
 (let (($x65 (= cell_9_8 9)))
 (let (($x18 (= cell_9_8 8)))
 (let (($x1135 (= cell_9_8 7)))
 (let (($x1149 (= cell_9_8 6)))
 (let (($x164 (= cell_9_8 5)))
 (let (($x326 (= cell_9_8 4)))
 (let (($x1431 (= cell_9_8 3)))
 (let (($x738 (= cell_9_8 2)))
 (let (($x1397 (= cell_9_8 1)))
 (or $x1397 $x738 $x1431 $x326 $x164 $x1149 $x1135 $x18 $x65)))))))))))
(assert
 (let (($x157 (= cell_1_9 9)))
 (let (($x1159 (= cell_1_9 8)))
 (let (($x239 (= cell_1_9 7)))
 (let (($x916 (= cell_1_9 6)))
 (let (($x1162 (= cell_1_9 5)))
 (let (($x1084 (= cell_1_9 4)))
 (let (($x1522 (= cell_1_9 3)))
 (let (($x675 (= cell_1_9 2)))
 (let (($x273 (= cell_1_9 1)))
 (or $x273 $x675 $x1522 $x1084 $x1162 $x916 $x239 $x1159 $x157)))))))))))
(assert
 (let (($x566 (= cell_2_9 9)))
 (let (($x1545 (= cell_2_9 8)))
 (let (($x1444 (= cell_2_9 7)))
 (let (($x1157 (= cell_2_9 6)))
 (let (($x156 (= cell_2_9 5)))
 (let (($x552 (= cell_2_9 4)))
 (let (($x1171 (= cell_2_9 3)))
 (let (($x1184 (= cell_2_9 2)))
 (let (($x48 (= cell_2_9 1)))
 (or $x48 $x1184 $x1171 $x552 $x156 $x1157 $x1444 $x1545 $x566)))))))))))
(assert
 (let (($x760 (= cell_3_9 9)))
 (let (($x225 (= cell_3_9 8)))
 (let (($x593 (= cell_3_9 7)))
 (let (($x357 (= cell_3_9 6)))
 (let (($x637 (= cell_3_9 5)))
 (let (($x295 (= cell_3_9 4)))
 (let (($x175 (= cell_3_9 3)))
 (let (($x908 (= cell_3_9 2)))
 (let (($x978 (= cell_3_9 1)))
 (or $x978 $x908 $x175 $x295 $x637 $x357 $x593 $x225 $x760)))))))))))
(assert
 (let (($x71 (= cell_4_9 9)))
 (let (($x451 (= cell_4_9 8)))
 (let (($x1016 (= cell_4_9 7)))
 (let (($x624 (= cell_4_9 6)))
 (let (($x610 (= cell_4_9 5)))
 (let (($x50 (= cell_4_9 4)))
 (let (($x617 (= cell_4_9 3)))
 (let (($x192 (= cell_4_9 2)))
 (let (($x1410 (= cell_4_9 1)))
 (or $x1410 $x192 $x617 $x50 $x610 $x624 $x1016 $x451 $x71)))))))))))
(assert
 (let (($x1429 (= cell_5_9 9)))
 (let (($x9 (= cell_5_9 8)))
 (let (($x335 (= cell_5_9 7)))
 (let (($x564 (= cell_5_9 6)))
 (let (($x1227 (= cell_5_9 5)))
 (let (($x1147 (= cell_5_9 4)))
 (let (($x1371 (= cell_5_9 3)))
 (let (($x1333 (= cell_5_9 2)))
 (let (($x680 (= cell_5_9 1)))
 (or $x680 $x1333 $x1371 $x1147 $x1227 $x564 $x335 $x9 $x1429)))))))))))
(assert
 (let (($x667 (= cell_6_9 9)))
 (let (($x382 (= cell_6_9 8)))
 (let (($x964 (= cell_6_9 7)))
 (let (($x1283 (= cell_6_9 6)))
 (let (($x510 (= cell_6_9 5)))
 (let (($x1281 (= cell_6_9 4)))
 (let (($x355 (= cell_6_9 3)))
 (let (($x1202 (= cell_6_9 2)))
 (let (($x470 (= cell_6_9 1)))
 (or $x470 $x1202 $x355 $x1281 $x510 $x1283 $x964 $x382 $x667)))))))))))
(assert
 (let (($x1589 (= cell_7_9 9)))
 (let (($x1247 (= cell_7_9 8)))
 (let (($x541 (= cell_7_9 7)))
 (let (($x1403 (= cell_7_9 6)))
 (let (($x972 (= cell_7_9 5)))
 (let (($x5 (= cell_7_9 4)))
 (let (($x293 (= cell_7_9 3)))
 (let (($x508 (= cell_7_9 2)))
 (let (($x1381 (= cell_7_9 1)))
 (or $x1381 $x508 $x293 $x5 $x972 $x1403 $x541 $x1247 $x1589)))))))))))
(assert
 (let (($x8 (= cell_8_9 9)))
 (let (($x138 (= cell_8_9 8)))
 (let (($x378 (= cell_8_9 7)))
 (let (($x929 (= cell_8_9 6)))
 (let (($x926 (= cell_8_9 5)))
 (let (($x442 (= cell_8_9 4)))
 (let (($x980 (= cell_8_9 3)))
 (let (($x308 (= cell_8_9 2)))
 (let (($x262 (= cell_8_9 1)))
 (or $x262 $x308 $x980 $x442 $x926 $x929 $x378 $x138 $x8)))))))))))
(assert
 (let (($x163 (= cell_9_9 9)))
 (let (($x240 (= cell_9_9 8)))
 (let (($x987 (= cell_9_9 7)))
 (let (($x616 (= cell_9_9 6)))
 (let (($x59 (= cell_9_9 5)))
 (let (($x1258 (= cell_9_9 4)))
 (let (($x664 (= cell_9_9 3)))
 (let (($x228 (= cell_9_9 2)))
 (let (($x887 (= cell_9_9 1)))
 (or $x887 $x228 $x664 $x1258 $x59 $x616 $x987 $x240 $x163)))))))))))
(assert
 (and (distinct cell_1_1 cell_1_2 cell_1_3 cell_1_4 cell_1_5 cell_1_6 cell_1_7 cell_1_8 cell_1_9) true))
(assert
 (and (distinct cell_2_1 cell_2_2 cell_2_3 cell_2_4 cell_2_5 cell_2_6 cell_2_7 cell_2_8 cell_2_9) true))
(assert
 (and (distinct cell_3_1 cell_3_2 cell_3_3 cell_3_4 cell_3_5 cell_3_6 cell_3_7 cell_3_8 cell_3_9) true))
(assert
 (and (distinct cell_4_1 cell_4_2 cell_4_3 cell_4_4 cell_4_5 cell_4_6 cell_4_7 cell_4_8 cell_4_9) true))
(assert
 (and (distinct cell_5_1 cell_5_2 cell_5_3 cell_5_4 cell_5_5 cell_5_6 cell_5_7 cell_5_8 cell_5_9) true))
(assert
 (and (distinct cell_6_1 cell_6_2 cell_6_3 cell_6_4 cell_6_5 cell_6_6 cell_6_7 cell_6_8 cell_6_9) true))
(assert
 (and (distinct cell_7_1 cell_7_2 cell_7_3 cell_7_4 cell_7_5 cell_7_6 cell_7_7 cell_7_8 cell_7_9) true))
(assert
 (and (distinct cell_8_1 cell_8_2 cell_8_3 cell_8_4 cell_8_5 cell_8_6 cell_8_7 cell_8_8 cell_8_9) true))
(assert
 (and (distinct cell_9_1 cell_9_2 cell_9_3 cell_9_4 cell_9_5 cell_9_6 cell_9_7 cell_9_8 cell_9_9) true))
(assert
 (and (distinct cell_1_1 cell_2_1 cell_3_1 cell_4_1 cell_5_1 cell_6_1 cell_7_1 cell_8_1 cell_9_1) true))
(assert
 (and (distinct cell_1_2 cell_2_2 cell_3_2 cell_4_2 cell_5_2 cell_6_2 cell_7_2 cell_8_2 cell_9_2) true))
(assert
 (and (distinct cell_1_3 cell_2_3 cell_3_3 cell_4_3 cell_5_3 cell_6_3 cell_7_3 cell_8_3 cell_9_3) true))
(assert
 (and (distinct cell_1_4 cell_2_4 cell_3_4 cell_4_4 cell_5_4 cell_6_4 cell_7_4 cell_8_4 cell_9_4) true))
(assert
 (and (distinct cell_1_5 cell_2_5 cell_3_5 cell_4_5 cell_5_5 cell_6_5 cell_7_5 cell_8_5 cell_9_5) true))
(assert
 (and (distinct cell_1_6 cell_2_6 cell_3_6 cell_4_6 cell_5_6 cell_6_6 cell_7_6 cell_8_6 cell_9_6) true))
(assert
 (and (distinct cell_1_7 cell_2_7 cell_3_7 cell_4_7 cell_5_7 cell_6_7 cell_7_7 cell_8_7 cell_9_7) true))
(assert
 (and (distinct cell_1_8 cell_2_8 cell_3_8 cell_4_8 cell_5_8 cell_6_8 cell_7_8 cell_8_8 cell_9_8) true))
(assert
 (and (distinct cell_1_9 cell_2_9 cell_3_9 cell_4_9 cell_5_9 cell_6_9 cell_7_9 cell_8_9 cell_9_9) true))
(assert
 (and (distinct cell_1_1 cell_1_2 cell_1_3 cell_2_1 cell_2_2 cell_2_3 cell_3_1 cell_3_2 cell_3_3) true))
(assert
 (and (distinct cell_1_4 cell_1_5 cell_1_6 cell_2_4 cell_2_5 cell_2_6 cell_3_4 cell_3_5 cell_3_6) true))
(assert
 (and (distinct cell_1_7 cell_1_8 cell_1_9 cell_2_7 cell_2_8 cell_2_9 cell_3_7 cell_3_8 cell_3_9) true))
(assert
 (and (distinct cell_4_1 cell_4_2 cell_4_3 cell_5_1 cell_5_2 cell_5_3 cell_6_1 cell_6_2 cell_6_3) true))
(assert
 (and (distinct cell_4_4 cell_4_5 cell_4_6 cell_5_4 cell_5_5 cell_5_6 cell_6_4 cell_6_5 cell_6_6) true))
(assert
 (and (distinct cell_4_7 cell_4_8 cell_4_9 cell_5_7 cell_5_8 cell_5_9 cell_6_7 cell_6_8 cell_6_9) true))
(assert
 (and (distinct cell_7_1 cell_7_2 cell_7_3 cell_8_1 cell_8_2 cell_8_3 cell_9_1 cell_9_2 cell_9_3) true))
(assert
 (and (distinct cell_7_4 cell_7_5 cell_7_6 cell_8_4 cell_8_5 cell_8_6 cell_9_4 cell_9_5 cell_9_6) true))
(assert
 (and (distinct cell_7_7 cell_7_8 cell_7_9 cell_8_7 cell_8_8 cell_8_9 cell_9_7 cell_9_8 cell_9_9) true))
(assert
 (let (($x495 (and (distinct cell_5_9 cell_6_8 cell_7_7 cell_8_6) true)))
 (let (($x531 (and (distinct cell_2_9 cell_3_8 cell_4_7 cell_5_6 cell_6_5 cell_7_4 cell_8_3 cell_9_2) true)))
 (let (($x1393 (and (distinct cell_1_8 cell_2_7 cell_3_6 cell_4_5 cell_5_4 cell_6_3 cell_7_2 cell_8_1) true)))
 (let (($x744 (and (distinct cell_1_5 cell_2_4 cell_3_3 cell_4_2) true)))
 (let (($x989 (and (distinct cell_5_1 cell_6_2 cell_7_3 cell_8_4) true)))
 (let (($x103 (and (distinct cell_2_1 cell_3_2 cell_4_3 cell_5_4 cell_6_5 cell_7_6 cell_8_7 cell_9_8) true)))
 (let (($x72 (and (distinct cell_1_2 cell_2_3 cell_3_4 cell_4_5 cell_5_6 cell_6_7 cell_7_8 cell_8_9) true)))
 (let (($x1519 (and (distinct cell_1_5 cell_2_6 cell_3_7 cell_4_8) true)))
 (and $x1519 $x72 $x103 $x989 $x744 $x1393 $x531 $x495))))))))))
(assert
 (= cell_1_6 1))
(assert
 (= cell_2_7 1))
(assert
 (= cell_3_3 1))
(assert
 (= cell_4_4 1))
(assert
 (= cell_5_9 1))
(assert
 (= cell_6_1 1))
(assert
 (= cell_7_5 1))
(assert
 (= cell_8_8 1))
(assert
 (= cell_9_2 1))
(assert
 (= cell_1_2 2))
(assert
 (= cell_2_8 2))
(assert
 (= cell_3_6 2))
(assert
 (= cell_4_1 2))
(assert
 (= cell_5_5 2))
(assert
 (= cell_6_9 2))
(assert
 (= cell_7_3 2))
(assert
 (= cell_8_7 2))
(assert
 (= cell_9_4 2))
(assert
 (= cell_1_3 3))
(check-sat)

